%%%mzn-stat: initTime=0.00338186
%%%mzn-stat: objective=381
%%%mzn-stat: nodes=1152
%%%mzn-stat: restarts=0
%%%mzn-stat: peakDepth=78
%%%mzn-stat: solveTime=0.059556384
%%%mzn-stat: variables=278
%%%mzn-stat: propagators=371
%%%mzn-stat: failures=795
%%%mzn-stat: propagations=92425
%%%mzn-stat: nogoods=795
%%%mzn-stat: AverageConflictSize=4.578616352201258
%%%mzn-stat: NumUnitNogoodsLearned=380
%%%mzn-stat: AverageLearnedNogoodLength=10.262893081761007
%%%mzn-stat: AverageBacktrackAmount=0
%%%mzn-stat: AverageLbd=3.2528301886792454
%%%mzn-stat-end
maxleg = 381;
succ = array1d(1..20,[14, 11, 5, 1, 9, 8, 3, 15, 12, 6, 18, 16, 19, 20, 17, 4, 2, 7, 10, 13]);
% time elapsed: 0.36 s
----------
==========
% time elapsed: 0.36 s
%%%mzn-stat: initTime=0.00338186
%%%mzn-stat: objective=381
%%%mzn-stat: nodes=1152
%%%mzn-stat: restarts=0
%%%mzn-stat: peakDepth=78
%%%mzn-stat: solveTime=0.059559566
%%%mzn-stat: variables=278
%%%mzn-stat: propagators=371
%%%mzn-stat: failures=795
%%%mzn-stat: propagations=92425
%%%mzn-stat: nogoods=795
%%%mzn-stat: AverageConflictSize=4.578616352201258
%%%mzn-stat: NumUnitNogoodsLearned=380
%%%mzn-stat: AverageLearnedNogoodLength=10.262893081761007
%%%mzn-stat: AverageBacktrackAmount=0
%%%mzn-stat: AverageLbd=3.2528301886792454
%%%mzn-stat-end
